; quart :: corpus-study/repo_src/quart/src/quart/asgi.py :: wait_for at handle_request:117 :: naive encoding (verdict: unsat)
; Generated by snf-pipeline (encoder.py) -- run with any
; SMT-LIB2-compliant solver, e.g. `z3 quart__corpus-study_repo_src_quart_src_quart_asgi.py__waitfor_handle_request_L117__naive.smt2`
; benchmark generated from python API
(set-info :status unknown)
(declare-fun timeout_fires () Bool)
(declare-fun cleanup_ran () Bool)
(assert
 (= timeout_fires false))
(assert
 (let (($x27 (not cleanup_ran)))
(and timeout_fires $x27)))
(check-sat)
